n_res = 6;
rcap = [38, 28, 36, 30, 96, 96];
rtype = [1, 1, 1, 1, 2, 2];
n_tasks = 16;
modes = [ {1, 2, 3}, {4, 5, 6}, {7, 8, 9}, {10, 11, 12}, {13, 14, 15}, {16, 17, 18}, {19, 20, 21}, {22, 23, 24}, {25, 26, 27}, {28, 29, 30}, {31, 32, 33}, {34, 35, 36}, {37, 38, 39}, {40, 41, 42}, {43, 44, 45}, {46, 47, 48} ];
succ = [ {6, 7}, {4, 13}, {6, 8, 15}, {5, 8, 11}, {6, 9, 14}, {16}, {8, 9, 10}, {14, 16}, {12}, {11, 13}, {12, 14, 16}, {15}, {15}, {}, {}, {} ];
n_opt = 48;
dur = [3, 8, 9, 3, 3, 5, 1, 8, 9, 2, 3, 4, 1, 5, 10, 4, 8, 8, 2, 4, 9, 6, 9, 10, 5, 5, 9, 1, 1, 6, 1, 9, 10, 5, 10, 10, 1, 2, 8, 1, 6, 9, 2, 7, 7, 2, 3, 5];
rreq = [|  8,  5,  2,  8,  9,  7,  7,  6,  2,  6,  3,  1,  4,  3,  3,  8,  8,  8,  7,  6,  6,  4,  4,  2, 10,  9,  8,  5,  4,  4,  7,  3,  1,  8,  8,  7,  9,  9,  8,  7,  6,  5,  8,  8,  7,  3,  3,  1
        | 10,  4,  2,  6,  7,  3, 10,  7,  7,  8,  7,  5,  5,  5,  3,  6,  6,  5, 10,  8,  7,  9,  8,  8,  3,  3,  2,  9,  9,  9,  6,  6,  5,  7,  1,  4,  4,  3,  3,  8,  7,  7,  8,  5,  3,  9,  9,  8
        |  7,  7,  6,  6,  6,  6,  9,  8,  7,  8,  7,  6,  7,  6,  6, 10,  8,  7, 10,  9,  8,  8,  7,  5,  9,  8,  5,  8,  8,  7,  7,  5,  5,  5,  4,  5,  2,  2,  1,  9,  9,  8,  9,  8,  9,  7,  6,  6
        |  7,  7,  7,  7,  7,  6,  8,  7,  6,  7,  3,  2, 10,  9,  9,  7,  6,  7,  5,  4,  3,  2,  2,  1,  2,  2,  2, 10,  9,  9, 10, 10, 10,  4,  4,  4,  9,  9,  9,  9,  8,  3,  3,  2,  3,  6,  4,  3
        |  6,  5,  4,  7,  5,  3,  8,  8,  6,  5,  5,  2,  6,  6,  4,  5,  5,  5,  9,  7,  6,  5,  5,  4,  5,  7,  3,  6,  7,  6,  8,  7,  7,  5,  3,  4,  5,  4,  3,  9,  6,  6,  3,  2,  3,  9,  7,  7
        |  9,  8,  6,  5,  5,  5,  8,  7,  1,  4,  3,  2,  2,  2,  1,  9,  7,  7,  6,  5,  3,  5,  5,  4, 10, 10,  8,  6,  6,  5, 10,  6,  3,  5,  5,  4,  5,  5,  2, 10,  7,  3,  4,  2,  2,  9,  7,  5 |];
